4
time=0ps Lattice="20 0 0 0 20 0 0 0 20"
C 0.0 0.0 10.0
C 5.0 0.0 10.0
Si 0.0 0.0 0.0
O 10.0 0.0 0.0
4
time=1ps Lattice="20 0 0 0 20 0 0 0 20"
C 0.0 0.0 6.0
C 5.0 0.0 6.0
Si 0.0 0.0 0.0
O 10.0 0.0 0.0
4
time=2ps Lattice="20 0 0 0 20 0 0 0 20"
C 0.0 0.0 3.0
C 5.0 0.0 3.0
Si 0.0 0.0 0.0
O 10.0 0.0 0.0
4
time=3ps Lattice="20 0 0 0 20 0 0 0 20"
C 0.0 0.0 3.0
C 0.0 0.0 6.0
Si 0.0 0.0 0.0
O 10.0 0.0 0.0
4
time=4ps Lattice="20 0 0 0 20 0 0 0 20"
C 0.0 0.0 3.0
C 0.0 0.0 6.0
Si 0.0 0.0 0.0
O 10.0 0.0 0.0
4
time=5ps Lattice="20 0 0 0 20 0 0 0 20"
C 0.0 0.0 10.0
C 5.0 0.0 10.0
Si 0.0 0.0 0.0
O 10.0 0.0 0.0
